NAME: instance_3269
TYPE: TSP
DIMENSION: 20
EDGE_WEIGHT_TYPE: EUC_2D
NODE_COORD_SECTION
0 77.65 29.05
1 16.28 19.02
2 11.91 93.20
3 99.46 18.52
4 53.02 91.06
5 76.16 73.13
6 94.91 50.68
7 88.12 98.73
8 14.87 54.85
9 29.49 67.71
10 84.78 87.91
11 57.85 84.58
12 45.85 22.12
13 30.28 17.97
14 39.32 65.47
15 74.88 50.44
16 29.51 47.83
17 24.29 47.68
18 97.46 54.41
19 5.30 69.15
EOF
